============================[ Problem Statistics ]=============================|                                                                             ||  Number of variables:          4242                                         ||  Number of clauses:            9881                                         ||  Parse time:                   0.28 s                                       ||                                                                             |============================[ Search Statistics ]==============================| Conflicts |          ORIGINAL         |          LEARNT          | Progress ||           |    Vars  Clauses Literals |    Limit  Clauses Lit/Cl |          |===============================================================================|       100 |    1591     6086   430227 |     2231      100     53 | 62.501 % |===============================================================================restarts              : 2conflicts             : 164            (376 /sec)decisions             : 333            (0.00 % random) (764 /sec)propagations          : 9987           (22906 /sec)conflict literals     : 10931          (95.32 % deleted)CPU time              : 0.436 sSATISFIABLE